50
150
99
98
97
95
95
93
93
92
89
80
80
79
79
77
76
75
74
74
73
71
71
70
68
66
64
63
61
60
57
57
55
54
53
50
50
49
48
47
46
46
42
42
39
38
38
37
37
34
32
31
